N = 43;
MinK = 6;
Capacity = 100;

X = array1d(0..43, [14, 73, 13, 37, 34, 58, 33, 18, 24, 17, 72, 78, 42, 1, 2, 32, 97, 39, 87, 42, 83, 79, 22, 58, 53, 38, 63, 42, 32, 38, 63, 22, 88, 58, 43, 73, 17, 87, 12, 48, 48, 7, 98, 34]);
Y = array1d(0..43, [68, 2, 47, 44, 63, 98, 42, 98, 79, 28, 67, 63, 48, 2, 28, 82, 38, 53, 1, 77, 27, 92, 39, 32, 84, 37, 59, 88, 88, 23, 32, 73, 94, 78, 62, 1, 32, 79, 24, 53, 23, 37, 77, 12]);

Demands = [8, 24, 9, 19, 9, 18, 9, 14, 3, 14, 8, 8, 13, 18, 4, 24, 14, 8, 18, 13, 2, 9, 18, 3, 24, 8, 24, 14, 13, 24, 23, 9, 13, 14, 14, 18, 24, 4, 8, 13, 4, 14, 18];
